DIM: 16
FLOW: 
0 0 2 0 2 0 2 2 0 0 0 0 0 0 0 0
0 0 2 3 1 2 0 0 2 2 2 2 2 2 0 0
2 2 0 1 5 0 2 2 0 0 0 0 0 0 0 0
0 3 1 0 1 2 0 0 2 2 2 2 2 2 0 0
2 1 5 1 0 0 2 2 0 0 0 0 0 0 0 0
0 2 0 2 0 0 0 0 2 2 2 2 2 2 0 0
2 0 2 0 2 0 0 2 0 0 0 0 0 0 0 0
2 0 2 0 2 0 2 0 0 0 0 0 0 0 0 0
0 2 0 2 0 2 0 0 0 2 3 3 3 2 0 0
0 2 0 2 0 2 0 0 2 0 2 2 2 2 0 0
0 2 0 2 0 2 0 0 3 2 0 4 3 2 0 0
0 2 0 2 0 2 0 0 3 2 4 0 4 2 0 0
0 2 0 2 0 2 0 0 3 2 3 4 0 2 0 0
0 2 0 2 0 2 0 0 2 2 2 2 2 0 0 1
0 0 0 0 0 0 0 0 0 0 0 0 0 0 0 0
0 0 0 0 0 0 0 0 0 0 0 0 0 1 0 0
DISTANCE: 
0 0 0 1 0 1 1 2 0 1 1 2 1 2 2 3
0 0 1 0 1 0 2 1 1 0 2 1 2 1 3 2
0 1 0 0 1 2 0 1 1 2 0 1 2 3 1 2
1 0 0 0 2 1 1 0 2 1 1 0 3 2 2 1
0 1 1 2 0 0 0 1 1 2 2 3 0 1 1 2
1 0 2 1 0 0 1 0 2 1 3 2 1 0 2 1
1 2 0 1 0 1 0 0 2 3 1 2 1 2 0 1
2 1 1 0 1 0 0 0 3 2 2 1 2 1 1 0
0 1 1 2 1 2 2 3 0 0 0 1 0 1 1 2
1 0 2 1 2 1 3 2 0 0 1 0 1 0 2 1
1 2 0 1 2 3 1 2 0 1 0 0 1 2 0 1
2 1 1 0 3 2 2 1 1 0 0 0 2 1 1 0
1 2 2 3 0 1 1 2 0 1 1 2 0 0 0 1
2 1 3 2 1 0 2 1 1 0 2 1 0 0 1 0
2 3 1 2 1 2 0 1 1 2 0 1 0 1 0 0
3 2 2 1 2 1 1 0 2 1 1 0 1 0 0 0
OPT_OBJ: 160
OPT_SOLUTION: 
11 14 10 16 12 8 9 3 13 6 5 7 15 2 1 4 